MoS2-Ni Calculation
1.0
10.0 0.0 0.0
0.0 10.0 0.0
0.0 0.0 10.0
N H
1 2
Direct
0.0 0.0 -0.010020000000000001
0.0 0.080793 0.05501
0.0 0.919207 0.05501
