MoS2-Ni Calculation
1.0
10.0 0.0 0.0
-5.0 8.6602540378 0.0
0.0 0.0 10.0
N H
1 1
Direct
0.5 0.49735919986871313 0.498675
0.5 0.602291456593927 0.551325
