MoS2-Ni Calculation
1.0
10.0 0.0 0.0
-5.0 8.6602540378 0.0
0.0 0.0 10.0
N H
2 2
Direct
0.5 0.5 0.488785
0.5 0.5 0.610133
0.5 0.6009566227715538 0.670041
0.5 1.5537439156136161 0.670041
