BiFS                                    
   1.00000000000000     
     7.8916125297999997    0.0000000000000000    0.0000000000000000
    -3.9465952314999999    6.8345096307000004    0.0000000000000000
     0.0027315549000000    0.0020575941000000   19.2797257251000005
   Bi   S    F 
     4     4     4
Direct
 -0.0000112448484964 -0.0000099271256616  0.4919425962105380
 -0.0000112447381918  0.4999900876010685  0.4919425962105380
  0.4999887475611663 -0.0000099271256616  0.4919425962105380
  0.4999887475447528  0.4999900876010685  0.4919425962105380
  0.3332716641808227  0.1666148736705981  0.5700986207914850
  0.3332716641362006  0.6666148586951213  0.5700986207914850
  0.8332716939719469  0.1666148736705981  0.5700986207914850
  0.8332716939273248  0.6666148586951213  0.5700986207914850
  0.1666856014512277  0.3333422141898193  0.4379801512661771
  0.1666856014192746  0.8333421842900887  0.4379801512661771
  0.6666856162897687  0.3333422141898193  0.4379801512661771
  0.6666856162578156  0.8333421842900887  0.4379801512661771
 
  0.00000000E+00  0.00000000E+00  0.00000000E+00
  0.00000000E+00  0.00000000E+00  0.00000000E+00
  0.00000000E+00  0.00000000E+00  0.00000000E+00
  0.00000000E+00  0.00000000E+00  0.00000000E+00
  0.00000000E+00  0.00000000E+00  0.00000000E+00
  0.00000000E+00  0.00000000E+00  0.00000000E+00
  0.00000000E+00  0.00000000E+00  0.00000000E+00
  0.00000000E+00  0.00000000E+00  0.00000000E+00
  0.00000000E+00  0.00000000E+00  0.00000000E+00
  0.00000000E+00  0.00000000E+00  0.00000000E+00
  0.00000000E+00  0.00000000E+00  0.00000000E+00
  0.00000000E+00  0.00000000E+00  0.00000000E+00
