Sr1 Ti1 O3
1.0
       11.1585130692         0.0000000000         0.0000000000
        0.0000000000         7.8902602196         0.0000000000
        0.0000000000         0.0000000000        20.0000000000
Sr	Ti	O	H	
8	8	24	1	
Cartesian
     0.000000000         0.000000000         2.789629996
     0.000000000         3.945130110         2.789629996
     2.789628267         0.000000000         0.000000000
     2.789628267         3.945130110         0.000000000
     8.368884802         0.000000000         0.000000000
     8.368884802         3.945130110         0.000000000
     5.579256535         0.000000000         2.789629996
     5.579256535         3.945130110         2.789629996
     0.000000000         1.972565055         0.000000000
     0.000000000         5.917695165         0.000000000
     8.368884802         1.972565055         2.789629996
     8.368884802         5.917695165         2.789629996
     2.789628267         1.972565055         2.789629996
     2.789628267         5.917695165         2.789629996
     5.579256535         1.972565055         0.000000000
     5.579256535         5.917695165         0.000000000
     9.763698270         1.972565055         1.394815743
     9.763698270         5.917695165         1.394815743
     1.394814134         1.972565055        18.605186939
     1.394814134         5.917695165        18.605186939
     6.974070668         1.972565055        18.605186939
     6.974070668         5.917695165        18.605186939
     4.184442401         1.972565055         1.394815743
     4.184442401         5.917695165         1.394815743
     0.000000000         0.000000000         0.000000000
     0.000000000         3.945130110         0.000000000
     8.368884802         0.000000000         2.789629996
     8.368884802         3.945130110         2.789629996
     2.789628267         0.000000000         2.789629996
     2.789628267         3.945130110         2.789629996
     5.579256535         0.000000000         0.000000000
     5.579256535         3.945130110         0.000000000
     1.394814134         1.972565055         1.394815743
     1.394814134         5.917695165         1.394815743
     4.184442401         1.972565055        18.605186939
     4.184442401         5.917695165        18.605186939
     9.763698270         1.972565055        18.605186939
     9.763698270         5.917695165        18.605186939
     6.974070668         1.972565055         1.394815743
     6.974070668         5.917695165         1.394815743
    4.184442401         3.945130110         4.000000000 ## Bridge_O_Sr
