MoS2-Ni Calculation
1.0
10.0 0.0 0.0
0.0 10.0 0.0
0.0 0.0 10.0
N H
2 2
Direct
0.0 0.0 -0.011215000000000001
0.0 0.0 0.110133
0.0 0.08743100000000001 0.170041
0.0 0.9125690000000001 0.170041
