This file is generated by VASPKIT code
1.0
7.880393355878084 -0.0007804490887112 -0.0296744630348678
-3.9404999529875897 6.822324814783012 0.0427224244566164
-0.063656216468314 0.0740656447379871 21.524381774152022
Bi S F H
4 4 4 1
Direct
0.0038022780432105 0.0037080009838168 0.4805551202033981
0.0038022780432105 0.5037080009838167 0.4805551202033981
0.5038022780432105 0.0037080009838168 0.4805551202033981
0.5038022780432105 0.5037080009838167 0.4805551202033981
0.338223208471948 0.169598255669391 0.5507217785719881
0.338223208471948 0.669598255669391 0.5507217785719881
0.8382232084719481 0.169598255669391 0.5507217785719881
0.8382232084719481 0.669598255669391 0.5507217785719881
0.1710388486562235 0.3397276243866341 0.4313031717246102
0.1710388486562235 0.8397276243866341 0.4313031717246102
0.6710388486562235 0.3397276243866341 0.4313031717246102
0.6710388486562235 0.8397276243866341 0.4313031717246102
0.5589904040246244 0.4462089355338356 0.5971818911627521
