MoS2-Ni Calculation
1.0
10.0 0.0 0.0
0.0 10.0 0.0
0.0 0.0 10.0
N
1
Direct
0.0 0.0 0.0
