BiFS
1.0
7.8916125298 0.0 0.0
-3.9465952315 6.8345096307 0.0
0.0027315549 0.0020575941 19.2797257251
Bi S F O
4 4 4 1
Direct
2.02894455462e-05 2.51776802989e-05 0.491941661248715
2.02895558509e-05 0.5000251924070289 0.491941661248715
0.500020281855209 2.51776802989e-05 0.491941661248715
0.5000202818387954 0.5000251924070289 0.491941661248715
0.3332818588665404 0.1666306714038686 0.5700831291967143
0.3332818588219183 0.6666306564283918 0.5700831291967143
0.8332818886576646 0.1666306714038686 0.5700831291967143
0.8332818886130425 0.6666306564283918 0.5700831291967143
0.1666438724714673 0.3332913116505884 0.4379965778227637
0.1666438724395142 0.8332912817508578 0.4379965778227637
0.6666438873100085 0.3332913116505884 0.4379965778227637
0.6666438872780553 0.8332912817508578 0.4379965778227637
0.4165 0.3333 0.6477719366762656
