MoS2-Ni Calculation
1.0
10.0 0.0 0.0
0.0 10.0 0.0
0.0 0.0 10.0
N H
2 4
Direct
7e-06 -0.01416 -0.014798
1.4e-05 0.114778 0.05879
0.919276 0.9311870000000001 0.016832
0.08072000000000001 0.9311750000000001 0.016825000000000003
0.91929 0.11530100000000001 0.121935
0.080753 0.115293 0.121918
