Sr1 Ti1 O3
1.0
       11.1585130692         0.0000000000         0.0000000000
        5.5792565346         9.6635557863         0.0000000000
        0.0000000000         0.0000000000        20.0000000
   Sr   Ti    O
   12   12   36
Cartesian
     0.000000000         0.000000000         0.000000000
    11.158513069         6.442370140         4.555443899
    13.948141336         8.052963539         2.277721950
    11.158512903         3.221185358         2.277721950
     8.368885051         1.610592679         4.555443899
     2.789628267         4.831777893         0.000000000
     8.368885134         8.052963539         2.277721950
     5.579256368         6.442370716         4.555443899
     5.579256535         0.000000000         0.000000000
     2.789628184         1.610592679         4.555443899
     8.368884802         4.831777893         0.000000000
     5.579256535         3.221185070         2.277721950
     0.000000000         0.000000000         3.416582823
    13.948141336         8.052963539         5.694304569
     2.789628101         1.610592535         1.138860771
    11.158512903         3.221185358         5.694304569
     5.579256368         6.442370140         1.138860771
     2.789628267         4.831777893         3.416582619
     8.368885134         8.052963539         5.694304569
     8.368884968         1.610592535         1.138860771
     5.579256535         0.000000000         3.416582619
     8.368884802         4.831777893         3.416582619
    11.158513069         6.442370140         1.138860975
     5.579256535         3.221185070         5.694304976
     5.579256701         8.052963539         2.277721950
    13.948141669         6.442370716         4.555443899
     2.789628600         0.000000000         0.000000000
    11.158513319         1.610592679         4.555443899
     5.579256867         4.831777893         0.000000000
     2.789628184         3.221185070         2.277721950
     8.368884802         6.442370716         4.555443899
     8.368884802         0.000000000         0.000000000
    11.158513069         8.052963539         2.277721950
     8.368885134         3.221185070         2.277721950
    11.158512903         4.831777605         0.000000000
     5.579256701         1.610592535         4.555444307
     1.394814092         0.805296340         2.277721950
    15.342955470         8.858259087         4.555443899
     4.184442401         2.415888947         0.000000000
    12.553327535         4.026481770         4.555443899
     6.974071001         7.247666840         0.000000000
     4.184442567         5.637074017         2.277721950
     9.763698603         8.858259087         4.555443899
     9.763698270         2.415888947         0.000000000
     6.974070419         0.805296268         2.277721950
     9.763698603         5.637074017         2.277721950
    12.553327868         7.247666840         0.000000000
     6.974070668         4.026481770         4.555444307
     9.763698728         0.805296340         2.277721950
    12.553327203         8.858259087         4.555443899
     1.394814134         2.415888947         0.000000000
     9.763699933         4.026481770         4.555443899
     4.184442401         7.247666840         0.000000000
    12.553327535         5.637074017         2.277721950
     6.974071001         8.858259087         4.555443899
     6.974070668         2.415888947         0.000000000
     4.184442484         0.805296268         2.277721950
     6.974070668         5.637074017         2.277721950
     9.763698603         7.247666840         0.000000000
     4.184442068         4.026481770         4.555444307
