MoS2-Ni Calculation
1.0
12.666565450293538 -5.708e-13 0.0
-6.333282725097203 10.96956745865962 0.0
0.0 0.0 18.09121868514824
Mo S Ni N H
16 32 1 2 2
Direct
4.36965608472e-05 -4.36923989496e-05 0.4424260196514553
-0.0001045647981208 0.2499468647018139 0.4428468586221954
4.2689117949e-05 0.5000850118317695 0.4424247638364835
1.02243501958e-05 0.7500045311428096 0.4424739379834601
0.2499954837005273 -1.02269139974e-05 0.4424739379834601
0.2491042035572632 0.2495877699461823 0.4429441906205979
0.2491022935052236 0.4995143695498377 0.4429426839473473
0.2499954133514266 0.7500045866884418 0.4424728671367658
0.499914958372814 -4.26916713199e-05 0.4424247638364835
0.5004854938303589 0.2495879122865901 0.4429449653724015
0.4999990737456397 0.5000009561142722 0.4420395207371257
0.5004856006750468 0.7508977213688446 0.4429426839473473
0.7500531799992681 0.0001045689548455 0.4428468586221954
0.7500529684454205 0.2499470763315188 0.4428462682655716
0.7504121324708235 0.4995145360495335 0.4429449653724015
0.7504122151408547 0.7508958113172172 0.4429441906205979
0.1660304011592252 0.0825375670760475 0.5291464158527495
0.1662980545015261 0.3331488264547273 0.5295033380840087
0.1660291463379033 0.5834908874553378 0.5291452979789968
0.1666675574499222 0.8333323233455773 0.5289882896813631
0.4165091127716903 0.0825373162013652 0.5291463126743102
0.4135115308484525 0.3270234652386038 0.5322538035822711
0.4135087248289806 0.5864913050157542 0.5322527247227727
0.4165091423242829 0.8339707195563213 0.5291452979789968
0.6664825896882911 0.0832406732992675 0.5292177255874418
0.6668523907137256 0.3331475496157695 0.5295042257166191
0.6729765346784974 0.5864884690621969 0.5322538035822711
0.6668510245523693 0.833701826338446 0.5295033380840087
0.9167593919256447 0.0832406229842206 0.5292185813775696
0.9167593490788358 0.3335173209462022 0.5292177255874418
0.9174626762864428 0.5834909468876593 0.5291463126743102
0.9174624553328429 0.8339694945232174 0.5291464158527495
0.1667669583151267 0.0835050735153664 0.3559119357399755
0.1665816040752008 0.3332889515674735 0.3563053841158466
0.1667657570449588 0.5832604576163001 0.35591030545648
0.1666668554372056 0.8333330402389557 0.3558674509564187
0.4167398419970064 0.083506508334615 0.3559118115512964
0.416856644673092 0.3337118132386178 0.356907747185326
0.4168554092863976 0.5831446204912548 0.3569061078312856
0.4167395423440802 0.8332341237087965 0.35591030545648
0.6668711166977292 0.083434374187 0.3560878191505036
0.6667092631865901 0.3332906473225064 0.3563062291569852
0.6662881568804448 0.5831433850578848 0.356907747185326
0.6667109589779885 0.833418291632637 0.3563053841158466
0.9165657040880935 0.0834343108217715 0.356088397699881
0.9165656183397887 0.3331288534838615 0.3560878191505036
0.9164934767363565 0.5832602176352213 0.3559118115512964
0.9164949190293917 0.8332329523101295 0.3559119357399755
0.4999963812138326 0.5000036187861676 0.5841845913497856
0.4999963812138326 0.5000036187861676 0.6947354632842383
0.4999963812138326 0.5000036187861676 0.757196705927204
0.49999638121383616 0.578949302220238 0.7848344239108171
0.49999638121382906 0.42105793535209723 0.7848344239108171
