This file is generated by VASPKIT code
 1.000000
   15.7607867117561682   -0.0015608981774224   -0.0593489260697356
   -7.8809999059751794   13.6446496295660236    0.0854448489132328
   -0.0636562164683140    0.0740656447379871   21.5243817741520225
   Bi   S    F 
    16    16    16
Direct
    0.0019011390216053    0.0018540004919084    0.4805551202033981     Bi1
    0.0019011390216053    0.2518540004919084    0.4805551202033981     Bi2
    0.0019011390216053    0.5018540004919084    0.4805551202033981     Bi3
    0.0019011390216053    0.7518540004919084    0.4805551202033981     Bi4
    0.2519011390216053    0.0018540004919084    0.4805551202033981     Bi5
    0.2519011390216053    0.2518540004919084    0.4805551202033981     Bi6
    0.2519011390216053    0.5018540004919084    0.4805551202033981     Bi7
    0.2519011390216053    0.7518540004919084    0.4805551202033981     Bi8
    0.5019011390216053    0.0018540004919084    0.4805551202033981     Bi9
    0.5019011390216053    0.2518540004919084    0.4805551202033981    Bi10
    0.5019011390216053    0.5018540004919084    0.4805551202033981    Bi11
    0.5019011390216053    0.7518540004919084    0.4805551202033981    Bi12
    0.7519011390216053    0.0018540004919084    0.4805551202033981    Bi13
    0.7519011390216053    0.2518540004919084    0.4805551202033981    Bi14
    0.7519011390216053    0.5018540004919084    0.4805551202033981    Bi15
    0.7519011390216053    0.7518540004919084    0.4805551202033981    Bi16
    0.1691116042359740    0.0847991278346955    0.5507217785719881      S1
    0.1691116042359740    0.3347991278346955    0.5507217785719881      S2
    0.1691116042359740    0.5847991278346956    0.5507217785719881      S3
    0.1691116042359740    0.8347991278346956    0.5507217785719881      S4
    0.4191116042359740    0.0847991278346955    0.5507217785719881      S5
    0.4191116042359740    0.3347991278346955    0.5507217785719881      S6
    0.4191116042359740    0.5847991278346956    0.5507217785719881      S7
    0.4191116042359740    0.8347991278346956    0.5507217785719881      S8
    0.6691116042359740    0.0847991278346955    0.5507217785719881      S9
    0.6691116042359740    0.3347991278346955    0.5507217785719881     S10
    0.6691116042359740    0.5847991278346956    0.5507217785719881     S11
    0.6691116042359740    0.8347991278346956    0.5507217785719881     S12
    0.9191116042359740    0.0847991278346955    0.5507217785719881     S13
    0.9191116042359740    0.3347991278346955    0.5507217785719881     S14
    0.9191116042359740    0.5847991278346956    0.5507217785719881     S15
    0.9191116042359740    0.8347991278346956    0.5507217785719881     S16
    0.0855194243281118    0.1698638121933170    0.4313031717246102      F1
    0.0855194243281118    0.4198638121933170    0.4313031717246102      F2
    0.0855194243281118    0.6698638121933170    0.4313031717246102      F3
    0.0855194243281118    0.9198638121933170    0.4313031717246102      F4
    0.3355194243281118    0.1698638121933170    0.4313031717246102      F5
    0.3355194243281118    0.4198638121933170    0.4313031717246102      F6
    0.3355194243281118    0.6698638121933170    0.4313031717246102      F7
    0.3355194243281118    0.9198638121933170    0.4313031717246102      F8
    0.5855194243281118    0.1698638121933170    0.4313031717246102      F9
    0.5855194243281118    0.4198638121933170    0.4313031717246102     F10
    0.5855194243281118    0.6698638121933170    0.4313031717246102     F11
    0.5855194243281118    0.9198638121933170    0.4313031717246102     F12
    0.8355194243281118    0.1698638121933170    0.4313031717246102     F13
    0.8355194243281118    0.4198638121933170    0.4313031717246102     F14
    0.8355194243281118    0.6698638121933170    0.4313031717246102     F15
    0.8355194243281118    0.9198638121933170    0.4313031717246102     F16
