This file is generated by VASPKIT code
 1.000000
    7.8803933558780841   -0.0007804490887112   -0.0296744630348678
   -3.9404999529875897    6.8223248147830118    0.0427224244566164
   -0.0636562164683140    0.0740656447379871   21.5243817741520225
   Bi   S    F 
     4     4     4
Direct
    0.0038022780432105    0.0037080009838168    0.4805551202033981     Bi1
    0.0038022780432105    0.5037080009838167    0.4805551202033981     Bi2
    0.5038022780432105    0.0037080009838168    0.4805551202033981     Bi3
    0.5038022780432105    0.5037080009838167    0.4805551202033981     Bi4
    0.3382232084719480    0.1695982556693910    0.5507217785719881      S1
    0.3382232084719480    0.6695982556693910    0.5507217785719881      S2
    0.8382232084719481    0.1695982556693910    0.5507217785719881      S3
    0.8382232084719481    0.6695982556693910    0.5507217785719881      S4
    0.1710388486562235    0.3397276243866341    0.4313031717246102      F1
    0.1710388486562235    0.8397276243866341    0.4313031717246102      F2
    0.6710388486562235    0.3397276243866341    0.4313031717246102      F3
    0.6710388486562235    0.8397276243866341    0.4313031717246102      F4
