MoS2-Ni Calculation
1.0
10.0 0.0 0.0
-5.0 8.6602540378 0.0
0.0 0.0 10.0
N H
2 4
Direct
0.5 1.5689617140089942 0.492476
0.5 0.5857388243761756 0.492476
0.580739 1.578959688620602 0.547062
1.419261 2.063080591044507 0.547062
0.580739 0.6689702165332478 0.547062
1.419261 1.1530911189571524 0.547062
