Sr1 Ti1 O3
1.0
       11.1585130692         0.0000000000         0.0000000000
        0.0000000000         7.8902602196         0.0000000000
        0.0000000000         0.0000000000        20
Sr	Ti	O	H	
8	8	24	1	
Cartesian
     0.000000000         0.000000000         0.000000000
     0.000000000         3.945130110         0.000000000
     2.789628267         0.000000000         2.789628267
     2.789628267         3.945130110         2.789628267
     8.368884802         0.000000000         2.789628267
     8.368884802         3.945130110         2.789628267
     5.579256535         0.000000000         0.000000000
     5.579256535         3.945130110         0.000000000
     0.000000000         1.972565055         2.789628267
     0.000000000         5.917695165         2.789628267
     8.368884802         1.972565055         0.000000000
     8.368884802         5.917695165         0.000000000
     2.789628267         1.972565055         0.000000000
     2.789628267         5.917695165         0.000000000
     5.579256535         1.972565055         2.789628267
     5.579256535         5.917695165         2.789628267
     9.763698936         1.972565055         1.394814134
     9.763698936         5.917695165         1.394814134
     1.394814134         1.972565055         4.184442401
     1.394814134         5.917695165         4.184442401
     6.974070668         1.972565055         4.184442401
     6.974070668         5.917695165         4.184442401
     4.184442401         1.972565055         1.394814134
     4.184442401         5.917695165         1.394814134
     0.000000000         0.000000000         2.789628267
     0.000000000         3.945130110         2.789628267
     8.368884802         0.000000000         0.000000000
     8.368884802         3.945130110         0.000000000
     2.789628267         0.000000000         0.000000000
     2.789628267         3.945130110         0.000000000
     5.579256535         0.000000000         2.789628267
     5.579256535         3.945130110         2.789628267
     1.394814134         1.972565055         1.394814134
     1.394814134         5.917695165         1.394814134
     4.184442401         1.972565055         4.184442401
     4.184442401         5.917695165         4.184442401
     9.763698936         1.972565055         4.184442401
     9.763698936         5.917695165         4.184442401
     6.974070668         1.972565055         1.394814134
     6.974070668         5.917695165         1.394814134
    5.579256535         3.945130110         4.0000000 ## Hollow
