ALGO = Normal
EDIFF = 0.0001
EDIFFG = -0.01
ENCUT = 600
IBRION = 2
ISIF = 3
ISMEAR = -5
ISPIN = 2
LASPH = True
LORBIT = 11
LREAL = Auto
LWAVE = True
LMAXMIN = 4
MAGMOM = 20*5.0 12*0.6
NELM = 100
NSW = 99
PREC = Accurate
SIGMA = 0.05
