BiFS
1.0
10.0 0.0 0.0
0.0 10.0 0.0
0.0 0.0 10.0
N
2
Direct
0.5 0.4435 0.5
0.5 0.5565 0.5
