MoS2-Ni Calculation
1.0
10.0 0.0 0.0
-5.0 8.6602540378 0.0
0.0 0.0 10.0
N H
2 4
Direct
0.500007 0.48365348182835033 0.485202
0.500014 0.6325423012985417 0.55879
1.419276 2.105986376299554 0.516832
0.58072 1.621831987560036 0.516825
1.4192900000000002 1.1638904557423997 0.621935
0.580753 0.6797516554601502 0.621918
