MoS2-Ni Calculation
1.0
10.0 0.0 0.0
-5.0 8.6602540378 0.0
0.0 0.0 10.0
N H
2 1
Direct
0.5 0.49895384131222303 0.495801
0.5 0.49658670520853343 0.613854
0.5 0.6044565201033992 0.666344
