Sr1 Ti1 O3
1.0
        7.8902602196         0.0000000000         0.0000000000
        0.0000000000         7.8902602196         0.0000000000
        0.0000000000         0.0000000000         20
Sr	Ti	O	H	
8	8	24	1	
Cartesian
     0.000000000         0.000000000         0.000000000
     0.000000000         0.000000000         3.945130110
     0.000000000         3.945130110         0.000000000
     0.000000000         3.945130110         3.945130110
     3.945130110         0.000000000         0.000000000
     3.945130110         0.000000000         3.945130110
     3.945130110         3.945130110         0.000000000
     3.945130110         3.945130110         3.945130110
     1.972565055         1.972565055         1.972565055
     1.972565055         1.972565055         5.917695165
     1.972565055         5.917695165         1.972565055
     1.972565055         5.917695165         5.917695165
     5.917695165         1.972565055         1.972565055
     5.917695165         1.972565055         5.917695165
     5.917695165         5.917695165         1.972565055
     5.917695165         5.917695165         5.917695165
     1.972565055         0.000000000         1.972565055
     1.972565055         0.000000000         5.917695165
     1.972565055         3.945130110         1.972565055
     1.972565055         3.945130110         5.917695165
     5.917695165         0.000000000         1.972565055
     5.917695165         0.000000000         5.917695165
     5.917695165         3.945130110         1.972565055
     5.917695165         3.945130110         5.917695165
     1.972565055         1.972565055         0.000000000
     1.972565055         1.972565055         3.945130110
     1.972565055         5.917695165         0.000000000
     1.972565055         5.917695165         3.945130110
     5.917695165         1.972565055         0.000000000
     5.917695165         1.972565055         3.945130110
     5.917695165         5.917695165         0.000000000
     5.917695165         5.917695165         3.945130110
     0.000000000         1.972565055         1.972565055
     0.000000000         1.972565055         5.917695165
     0.000000000         5.917695165         1.972565055
     0.000000000         5.917695165         5.917695165
     3.945130110         1.972565055         1.972565055
     3.945130110         1.972565055         5.917695165
     3.945130110         5.917695165         1.972565055
     3.945130110         5.917695165         5.917695165
    3.945130110         2.958847583         6.0000000 ## Bridge_O_Sr