Sr1 Ti1 O3
1.0
        7.9699997902         0.0000000000         0.0000000000
        0.0000000000         7.9699997902         0.0000000000
        0.0000000000         0.0000000000        20.0000000000
Ca	Sr	Ba	Pb	La	Ti	O	H	O	
1	1	2	2	2	4	16	1	1	
Direct
     0.500000000         0.500000000         0.199249998
     0.500000000         0.000000000         0.000000000
     0.000000000         0.500000000         0.199249998
     0.000000000         0.500000000         0.000000000
     0.500000000         0.000000000         0.199249998
     0.500000000         0.500000000         0.199249998
     0.000000000         0.000000000         0.000000000
     0.500000000         0.500000000         0.000000000
     0.250000000         0.250000000         0.099624999
     0.250000000         0.750000000         0.099624999
     0.750000000         0.250000000         0.099624999
     0.750000000         0.750000000         0.099624999
     0.250000000         0.000000000         0.099624999
     0.250000000         0.500000000         0.099624999
     0.750000000         0.000000000         0.099624999
     0.750000000         0.500000000         0.099624999
     0.250000000         0.250000000         0.000000000
     0.250000000         0.250000000         0.199249998
     0.250000000         0.750000000         0.000000000
     0.250000000         0.750000000         0.199249998
     0.750000000         0.250000000         0.000000000
     0.750000000         0.250000000         0.199249998
     0.750000000         0.750000000         0.000000000
     0.750000000         0.750000000         0.199249998
     0.000000000         0.250000000         0.099624999
     0.000000000         0.750000000         0.099624999
     0.500000000         0.250000000         0.099624999
     0.500000000         0.750000000         0.099624999
    0.500000000         0.250000000         0.500000000  ## Top Site
    0.500000000         0.250000000         0.500000000  ## Top Site    