Sr1 Ti1 O3
1.0
       11.1585130692         0.0000000000         0.0000000000
        5.5792558912         9.6635561578         0.0000000000
        0.0000000000         0.0000000000        20.0000000000
   Sr   Ti    O
   12   12   36
Cartesian
     0.000000000         0.000000000         4.555439949
    11.158512640         6.442370388        19.999996424
    13.948140800         8.052963849         2.277718037
    11.158512688         3.221185482         2.277718037
     8.368884944         1.610592741        19.999996424
     2.789627946         4.831778079         4.555439949
     8.368884598         8.052963849         2.277718037
     5.579255939         6.442370964        19.999996424
     5.579256535         0.000000000         4.555439949
     2.789628077         1.610592741        19.999996424
     8.368884480         4.831778079         4.555439949
     5.579256320         3.221185194         2.277718037
     0.000000000         0.000000000         1.138857082
    13.948140800         8.052963849        18.861135244
     2.789627994         1.610592597         3.416579068
    11.158512688         3.221185482        18.861135244
     5.579256272         6.442370388         3.416579068
     2.789627946         4.831778079         1.138857380
     8.368884598         8.052963849        18.861135244
     8.368884861         1.610592597         3.416579068
     5.579256535         0.000000000         1.138857380
     8.368884480         4.831778079         1.138857380
    11.158512640         6.442370388         3.416579068
     5.579256320         3.221185194        18.861135244
     5.579256165         8.052963849         2.277718037
    13.948141240         6.442370964        19.999996424
     2.789628600         0.000000000         4.555439949
    11.158513211         1.610592741        19.999996424
     5.579256545         4.831778079         4.555439949
     2.789628136         3.221185194         2.277718037
     8.368884373         6.442370964        19.999996424
     8.368884802         0.000000000         4.555439949
    11.158512533         8.052963849         2.277718037
     8.368884920         3.221185194         2.277718037
    11.158512581         4.831777791         4.555439949
     5.579256594         1.610592597        19.999996424
     1.394814038         0.805296370         2.277718037
    15.342954880         8.858259427        19.999996424
     4.184442240         2.415889039         4.555439949
    12.553327267         4.026481924        19.999996424
     6.974070518         7.247667118         4.555439949
     4.184442192         5.637074233         2.277718037
     9.763698013         8.858259427        19.999996424
     9.763698110         2.415889039         4.555439949
     6.974070365         0.805296298         2.277718037
     9.763698228         5.637074233         2.277718037
    12.553327385         7.247667118         4.555439949
     6.974070400         4.026481924        19.999996424
     9.763698674         0.805296370         2.277718037
    12.553326613         8.858259427        19.999996424
     1.394813973         2.415889039         4.555439949
     9.763699665         4.026481924        19.999996424
     4.184441918         7.247667118         4.555439949
    12.553327160         5.637074233         2.277718037
     6.974070411         8.858259427        19.999996424
     6.974070507         2.415889039         4.555439949
     4.184442430         0.805296298         2.277718037
     6.974070293         5.637074233         2.277718037
     9.763698120         7.247667118         4.555439949
     4.184441800         4.026481924        19.999996424
