MoS2-Ni Calculation
1.0
10.0 0.0 0.0
-5.0 8.6602540378 0.0
0.0 0.0 10.0
N H
2 3
Direct
0.5 1.5820329241035143 0.492431
0.5 0.5935007213952007 0.491532
0.580741 1.5929881454614436 0.549079
1.4192589999999998 2.0771067384842716 0.549079
0.5 0.6305839291854405 0.591078
