MoS2-Ni Calculation
1.0
10.0 0.0 0.0
-5.0 8.6602540378 0.0
0.0 0.0 10.0
N H
2 1
Direct
0.5 1.5884738437066268 0.497044
0.5 0.5700891679794414 0.499094
0.5 1.5278636124467893 0.590462
