MoS2-Ni Calculation
1.0
10.0 0.0 0.0
0.0 10.0 0.0
0.0 0.0 10.0
N H
2 1
Direct
0.0 -0.0009060000000000001 -0.0041990000000000005
0.0 -0.0029560000000000003 0.11385400000000001
0.0 0.090462 0.16634400000000002
