MoS2-Ni Calculation
1.0
10.0 0.0 0.0
0.0 10.0 0.0
0.0 0.0 10.0
N H
1 1
Direct
0.0 0.0 0.0
0.0 0.0863 0.05
