POSCAR\(0\0\-1)
1.0
6.711208118845084 0.0003700486294059 -0.0112266093969715
-3.3540156142971966 5.821185560182027 0.004772991198986
-0.0333081676429115 -0.0034785426025419 19.795000192083005
Mn Si O
20 12 2
Direct
0.7564381517757601 0.756309859258531 0.3444226408501462
0.7576762150825207 0.7584453349474176 0.1216794540874335
0.2392336123351144 0.2406940343960409 0.2400752048330448
0.2255813397704268 0.2239875871845911 0.0129456837091338
0.9981223716897173 0.7597290585749892 0.2403403504112228
0.0017611050260266 0.7763319780869844 0.0132505207952112
0.2427920296957679 -0.000229832687028 0.3444119261774635
0.2414585699791556 -0.0001545499500804 0.1199332120086104
-2.49309924318e-05 0.2430851312454606 0.3441550660364148
-0.0013555832800783 0.2423408559528916 0.121412338742883
0.7609290934170473 -0.0003299635054277 0.2398648002107617
0.7775181830522365 0.0002549195532475 0.0138998844326353
0.3347254352982401 0.6649869304143603 0.4229950698060186
0.3336220246999287 0.6678613460185108 0.1773783229533851
0.6670801557229104 0.3325852516321096 0.2978384868732084
0.665934579041037 0.3320823443463417 0.0527472242157452
0.6671854284590879 0.3345936855380486 0.4229371522852636
0.6656363565442923 0.3328784970088736 0.1772960366610212
0.3332346511523341 0.6676848188357859 0.2978408711936924
0.3340562147788326 0.6678348500701851 0.0527354395737181
0.6040552827025392 1.65163806731e-05 0.3622559388182782
0.601482089288083 0.000105991401744 0.120563784039725
0.0001772558774189 0.4028495614454083 0.2340242549381143
0.0003772601303263 0.4035421286394684 0.0024590971698375
0.5963236317131546 0.5964173079183434 0.2344255211284214
0.5971432181225746 0.5966737684566008 0.0025178467202969
0.396656973602537 0.3960936476921325 0.3608457066884282
0.398505193011873 0.4004872650188038 0.120199295295081
0.0006019902038615 0.6037733308072868 0.3617959867347665
0.9984228830981224 0.5988876133463736 0.1200762814487864
0.4002161773154576 0.0003246141498209 0.2344205914198553
0.4044530956861158 -0.0001237981784892 0.0007559547413796
0.6673208726898929 0.33460125754817643 0.5011753775506006
0.6674250416803615 0.3346102180687377 0.5634473481584013
