MoS2-Ni Calculation
1.0
10.0 0.0 0.0
0.0 10.0 0.0
0.0 0.0 10.0
N H
2 2
Direct
0.0 0.937694 -0.005079
0.0 0.062306 -0.005079
0.0 0.8966310000000001 0.09167900000000001
0.0 0.103369 0.09167900000000001
