Bi_dSF    
   1.00000000000000    
     3.9401966779390420   -0.0003902245443556   -0.0148372315174339
    -1.9702499764937949    3.4111624073915059    0.0213612122283082
    -0.0636562164683140    0.0740656447379871   21.5243817741520225
   Bi   S    F   
     1     1     1   
Direct
  0.0076045560864211  0.0074160019676335  0.4805551202033981
  0.6764464169438961  0.3391965113387821  0.5507217785719881
  0.3420776973124471  0.6794552487732681  0.4313031717246102
 
  0.00000000E+00  0.00000000E+00  0.00000000E+00
  0.00000000E+00  0.00000000E+00  0.00000000E+00
  0.00000000E+00  0.00000000E+00  0.00000000E+00
                                                 
