MoS2-Ni Calculation
1.0
10.0 0.0 0.0
-5.0 8.6602540378 0.0
0.0 0.0 10.0
N H
2 3
Direct
0.5 0.5 0.5
0.5 0.6129966852852959 0.5565
0.5 0.4000029333758443 0.55
0.4134 0.5629981519732181 0.6075
0.58666 0.6630298596135253 0.6075
