MoS2-Ni Calculation
1.0
10.0 0.0 0.0
0.0 10.0 0.0
0.0 0.0 10.0
N H
2 3
Direct
0.0 -0.056499999999999995 0.0
0.0 0.056499999999999995 0.0
0.08660000000000001 -0.0815 0.043300000000000005
-0.08660000000000001 -0.0815 0.043300000000000005
0.0 0.1065 0.08660000000000001
