BiFS
1.0
10.0 0.0 0.0
0.0 10.0 0.0
0.0 0.0 10.0
N H
1 1
Direct
0.5 0.497713 0.498675
0.5 0.588587 0.551325
